NAME : kroA100-C-5-1-a.22589.tour
COMMENT : Length = 22589
COMMENT : Found by LKH-3 [Keld Helsgaun] Tue Jul 30 13:14:11 2024
TYPE : TOUR
DIMENSION : 100
TOUR_SECTION
1
67
69
64
40
54
2
44
50
73
68
85
82
95
13
76
33
37
5
52
78
96
39
30
48
100
41
71
14
3
43
46
29
34
83
55
7
9
57
87
51
25
81
61
58
28
93
63
6
49
90
19
75
92
8
42
89
31
80
56
97
4
65
26
66
70
22
94
16
88
53
79
18
24
38
99
36
84
10
72
21
74
59
17
15
11
32
45
60
62
35
86
27
12
20
77
23
98
91
47
-1
EOF
